72 66934
53 5 45 15 69 50 43 72 3 51 41 58 20 19 37 4 25 11 52 42 57 36 6 13 63 66 24 32 68 40 55 46 48 59 62 54 47 22 1 65 49 33 39 9 61 2 26 44 38 71 16 17 28 34 31 60 21 29 7 67 30 70 27 12 64 35 14 10 23 8 18 56 
